
Gurobi 4.6.0 (linux64) logging started Mon Mar 19 21:29:54 2012

Read LP format model from file /home/polaris/yzhang1/Implementation/flute-3.1/flute-3.1/tmp/problem.lp
Reading time = 0.00 seconds
(null): 84 rows, 165 columns, 411 nonzeros

Gurobi 4.6.0 (linux64) logging started Mon Mar 19 21:32:28 2012

Error reading LP format file /home/polaris/yzhang1/Implementation/flute-3.1/flute-3.1/tmp/tt.lp at line 3
Malformed term in expression
Neighboring tokens: " - 4 X_1) ^ 2 + (10 - 4 X_0 "

Error reading LP format file /home/polaris/yzhang1/Implementation/flute-3.1/flute-3.1/tmp/tt.lp at line 3
Malformed term in expression
Neighboring tokens: " - 4 X_1) * (10 - 3 X_0 - 4 "

Error reading LP format file /home/polaris/yzhang1/Implementation/flute-3.1/flute-3.1/tmp/tt.lp at line 3
Malformed term in expression
Neighboring tokens: " - 4 X_1) (10 - 3 X_0 - 4 X_1) "

Error reading LP format file /home/polaris/yzhang1/Implementation/flute-3.1/flute-3.1/tmp/tt.lp at line 6
Malformed term in expression
Neighboring tokens: " 4 X_1 X_1 <= 36 Binaries X_0 "

Error reading LP format file /home/polaris/yzhang1/Implementation/flute-3.1/flute-3.1/tmp/tt.lp at line 6
Malformed term in expression
Neighboring tokens: " X_1 X_1 <= 36 Binaries X_0 X_1 "

Read LP format model from file /home/polaris/yzhang1/Implementation/flute-3.1/flute-3.1/tmp/tt.lp
Reading time = 0.00 seconds
(null): 1 rows, 2 columns, 1 nonzeros
Read LP format model from file /home/polaris/yzhang1/Implementation/flute-3.1/flute-3.1/tmp/tt.lp
Reading time = 0.00 seconds
(null): 1 rows, 4 columns, 4 nonzeros
Optimize a model with 1 rows, 4 columns and 4 nonzeros
Presolve removed 1 rows and 4 columns
Presolve time: 0.00s

Explored 0 nodes (0 simplex iterations) in 0.00 seconds
Thread count was 1 (of 2 available processors)

Optimal solution found (tolerance 1.00e-04)
Best objective 0.000000000000e+00, best bound 0.000000000000e+00, gap 0.0%
Read LP format model from file /home/polaris/yzhang1/Implementation/flute-3.1/flute-3.1/tmp/tt.lp
Reading time = 0.00 seconds
(null): 1 rows, 3 columns, 3 nonzeros
Optimize a model with 1 rows, 3 columns and 3 nonzeros
Presolve removed 1 rows and 3 columns
Presolve time: 0.00s

Explored 0 nodes (0 simplex iterations) in 0.00 seconds
Thread count was 1 (of 2 available processors)

Optimal solution found (tolerance 1.00e-04)
Best objective 1.100000000000e+01, best bound 1.100000000000e+01, gap 0.0%
Read LP format model from file /home/polaris/yzhang1/Implementation/flute-3.1/flute-3.1/tmp/tt.lp
Reading time = 0.00 seconds
(null): 1 rows, 3 columns, 3 nonzeros
Optimize a model with 1 rows, 3 columns and 3 nonzeros
Presolve removed 1 rows and 3 columns
Presolve time: 0.00s

Explored 0 nodes (0 simplex iterations) in 0.00 seconds
Thread count was 1 (of 2 available processors)

Optimal solution found (tolerance 1.00e-04)
Best objective 5.000000000000e+00, best bound 5.000000000000e+00, gap 0.0%
Error reading LP format file /home/polaris/yzhang1/Implementation/flute-3.1/flute-3.1/tmp/problem.lp at line 1
Malformed term in expression
Neighboring tokens: " A_0_0 40.000000 + A_0_1 0.000000 + A_0_2 10.000000 "

Error reading LP format file /home/polaris/yzhang1/Implementation/flute-3.1/flute-3.1/tmp/problem.lp at line 1
Malformed term in expression
Neighboring tokens: " A_0_0 40.000000 + A_0_1 + A_0_2 10.000000 + A_1_0 "

Error reading LP format file /home/polaris/yzhang1/Implementation/flute-3.1/flute-3.1/tmp/problem.lp at line 1
Malformed term in expression
Neighboring tokens: " A_0_0 40.000000 + A_0_1 + A_0_2 10.000000 + A_1_0 "

Error reading LP format file /home/polaris/yzhang1/Implementation/flute-3.1/flute-3.1/tmp/problem.lp at line 3
Malformed term in expression
Neighboring tokens: " Y_0_0_1_0 15101652.000000 + Y_0_0_1_1 15101652.000000 "

Error reading LP format file /home/polaris/yzhang1/Implementation/flute-3.1/flute-3.1/tmp/problem.lp at line 6
Unrecognized constraint RHS
Neighboring tokens: " <= A_0_0 Y_0_0_1_0 <= A_1_0 Y_0_0_1_0 >= A_0_0 "

Read LP format model from file /home/polaris/yzhang1/Implementation/flute-3.1/flute-3.1/tmp/problem.lp
Reading time = 0.00 seconds
(null): 55 rows, 26 columns, 163 nonzeros
Optimize a model with 55 rows, 26 columns and 163 nonzeros
Presolve removed 55 rows and 26 columns
Presolve time: 0.00s

Explored 0 nodes (0 simplex iterations) in 0.00 seconds
Thread count was 1 (of 2 available processors)

Optimal solution found (tolerance 1.00e-04)
Best objective 0.000000000000e+00, best bound 0.000000000000e+00, gap 0.0%
Read LP format model from file /home/polaris/yzhang1/Implementation/flute-3.1/flute-3.1/tmp/problem.lp
Reading time = 0.00 seconds
(null): 55 rows, 26 columns, 163 nonzeros
Optimize a model with 55 rows, 26 columns and 163 nonzeros
Presolve removed 55 rows and 26 columns
Presolve time: 0.00s

Explored 0 nodes (0 simplex iterations) in 0.00 seconds
Thread count was 1 (of 2 available processors)

Optimal solution found (tolerance 1.00e-04)
Best objective 0.000000000000e+00, best bound 0.000000000000e+00, gap 0.0%
Read LP format model from file /home/polaris/yzhang1/Implementation/flute-3.1/flute-3.1/tmp/problem.lp
Reading time = 0.00 seconds
(null): 55 rows, 26 columns, 163 nonzeros
Optimize a model with 55 rows, 26 columns and 163 nonzeros
Presolve removed 55 rows and 26 columns
Presolve time: 0.00s

Explored 0 nodes (0 simplex iterations) in 0.00 seconds
Thread count was 1 (of 2 available processors)

Optimal solution found (tolerance 1.00e-04)
Best objective 0.000000000000e+00, best bound 0.000000000000e+00, gap 0.0%
Read LP format model from file /home/polaris/yzhang1/Implementation/flute-3.1/flute-3.1/tmp/problem.lp
Reading time = 0.00 seconds
(null): 1 rows, 25 columns, 19 nonzeros
Optimize a model with 1 rows, 25 columns and 19 nonzeros
Presolve removed 1 rows and 25 columns
Presolve time: 0.00s

Explored 0 nodes (0 simplex iterations) in 0.00 seconds
Thread count was 1 (of 2 available processors)

Optimal solution found (tolerance 1.00e-04)
Best objective 0.000000000000e+00, best bound 0.000000000000e+00, gap 0.0%
Read LP format model from file /home/polaris/yzhang1/Implementation/flute-3.1/flute-3.1/tmp/problem.lp
Reading time = 0.00 seconds
(null): 1 rows, 25 columns, 19 nonzeros
Optimize a model with 1 rows, 25 columns and 19 nonzeros
Presolve removed 1 rows and 25 columns
Presolve time: 0.00s

Explored 0 nodes (0 simplex iterations) in 0.00 seconds
Thread count was 1 (of 2 available processors)

Optimal solution found (tolerance 1.00e-04)
Best objective 0.000000000000e+00, best bound 0.000000000000e+00, gap 0.0%
Read LP format model from file /home/polaris/yzhang1/Implementation/flute-3.1/flute-3.1_3_9_perfect_version/tmp/problem.lp
Reading time = 0.00 seconds
(null): 4 rows, 4 columns, 8 nonzeros
Optimize a model with 4 rows, 4 columns and 8 nonzeros
Presolve removed 4 rows and 4 columns
Presolve time: 0.00s

Explored 0 nodes (0 simplex iterations) in 0.00 seconds
Thread count was 1 (of 2 available processors)

Optimal solution found (tolerance 1.00e-04)
Best objective 2.880000000000e+02, best bound 2.880000000000e+02, gap 0.0%
Warning: unknown variable 'Y_0_0_1_0' in integer section
Warning: unknown variable 'Y_0_0_1_1' in integer section
Warning: unknown variable 'Y_0_0_1_2' in integer section
Warning: unknown variable 'Y_0_1_1_0' in integer section
Warning: unknown variable 'Y_0_1_1_1' in integer section
Warning: unknown variable 'Y_0_1_1_2' in integer section
Warning: unknown variable 'Y_0_2_1_0' in integer section
Warning: unknown variable 'Y_0_2_1_1' in integer section
Warning: unknown variable 'Y_0_2_1_2' in integer section
Warning: unknown variable 'Y_1_0_0_0' in integer section
Warning: unknown variable 'Y_1_0_0_1' in integer section
Warning: unknown variable 'Y_1_0_0_2' in integer section
Warning: unknown variable 'Y_1_1_0_0' in integer section
Warning: unknown variable 'Y_1_1_0_1' in integer section
Warning: unknown variable 'Y_1_1_0_2' in integer section
Warning: unknown variable 'Y_1_2_0_0' in integer section
Warning: unknown variable 'Y_1_2_0_1' in integer section
Warning: unknown variable 'Y_1_2_0_2' in integer section
Read LP format model from file /home/polaris/yzhang1/Implementation/flute-3.1/flute-3.1/tmp/problem.lp
Reading time = 0.00 seconds
(null): 1 rows, 7 columns, 7 nonzeros
Read LP format model from file /home/polaris/yzhang1/Implementation/flute-3.1/flute-3.1/tmp/problem.lp
Reading time = 0.00 seconds
(null): 1 rows, 7 columns, 7 nonzeros
Optimize a model with 1 rows, 7 columns and 7 nonzeros
Presolve removed 1 rows and 7 columns
Presolve time: 0.00s

Explored 0 nodes (0 simplex iterations) in 0.00 seconds
Thread count was 1 (of 2 available processors)

Optimal solution found (tolerance 1.00e-04)
Best objective 0.000000000000e+00, best bound 0.000000000000e+00, gap 0.0%
Read LP format model from file /home/polaris/yzhang1/Implementation/flute-3.1/flute-3.1/tmp/problem.lp
Reading time = 0.00 seconds
(null): 1 rows, 7 columns, 7 nonzeros
Optimize a model with 1 rows, 7 columns and 7 nonzeros
Presolve removed 1 rows and 7 columns
Presolve time: 0.00s

Explored 0 nodes (0 simplex iterations) in 0.00 seconds
Thread count was 1 (of 2 available processors)

Optimal solution found (tolerance 1.00e-04)
Best objective 0.000000000000e+00, best bound 0.000000000000e+00, gap 0.0%
Read LP format model from file /home/polaris/yzhang1/Implementation/flute-3.1/flute-3.1/tmp/problem.lp
Reading time = 0.00 seconds
(null): 1 rows, 7 columns, 7 nonzeros
Optimize a model with 1 rows, 7 columns and 7 nonzeros
Presolve removed 1 rows and 7 columns
Presolve time: 0.00s

Explored 0 nodes (0 simplex iterations) in 0.00 seconds
Thread count was 1 (of 2 available processors)

Optimal solution found (tolerance 1.00e-04)
Best objective 0.000000000000e+00, best bound 0.000000000000e+00, gap 0.0%
Read LP format model from file /home/polaris/yzhang1/Implementation/flute-3.1/flute-3.1/tmp/problem.lp
Reading time = 0.54 seconds
(null): 1 rows, 7 columns, 7 nonzeros
Optimize a model with 1 rows, 7 columns and 7 nonzeros
Presolve removed 1 rows and 7 columns
Presolve time: 0.00s

Explored 0 nodes (0 simplex iterations) in 0.00 seconds
Thread count was 1 (of 2 available processors)

Optimal solution found (tolerance 1.00e-04)
Best objective 0.000000000000e+00, best bound 0.000000000000e+00, gap 0.0%
Read LP format model from file /home/polaris/yzhang1/Implementation/flute-3.1/flute-3.1/tmp/problem.lp
Reading time = 0.00 seconds
(null): 1 rows, 4 columns, 4 nonzeros
Optimize a model with 1 rows, 4 columns and 4 nonzeros
Presolve removed 1 rows and 4 columns
Presolve time: 0.00s

Explored 0 nodes (0 simplex iterations) in 0.00 seconds
Thread count was 1 (of 2 available processors)

Optimal solution found (tolerance 1.00e-04)
Best objective 0.000000000000e+00, best bound 0.000000000000e+00, gap 0.0%
Read LP format model from file /home/polaris/yzhang1/Implementation/flute-3.1/flute-3.1/tmp/problem.lp
Reading time = 0.00 seconds
(null): 1 rows, 4 columns, 4 nonzeros
Optimize a model with 1 rows, 4 columns and 4 nonzeros
Presolve removed 1 rows and 4 columns
Presolve time: 0.00s

Explored 0 nodes (0 simplex iterations) in 0.00 seconds
Thread count was 1 (of 2 available processors)

Optimal solution found (tolerance 1.00e-04)
Best objective 0.000000000000e+00, best bound 0.000000000000e+00, gap 0.0%
Read LP format model from file /home/polaris/yzhang1/Implementation/flute-3.1/flute-3.1/tmp/problem.lp
Reading time = 0.00 seconds
(null): 1 rows, 3 columns, 3 nonzeros
Optimize a model with 1 rows, 3 columns and 3 nonzeros
Presolve removed 1 rows and 3 columns
Presolve time: 0.00s

Explored 0 nodes (0 simplex iterations) in 0.00 seconds
Thread count was 1 (of 2 available processors)

Optimal solution found (tolerance 1.00e-04)
Best objective 1.000000000000e+01, best bound 1.000000000000e+01, gap 0.0%
Read LP format model from file /home/polaris/yzhang1/Implementation/flute-3.1/flute-3.1/tmp/problem.lp
Reading time = 0.00 seconds
(null): 54 rows, 26 columns, 161 nonzeros
Optimize a model with 54 rows, 26 columns and 161 nonzeros
Presolve removed 54 rows and 26 columns
Presolve time: 0.00s

Explored 0 nodes (0 simplex iterations) in 0.00 seconds
Thread count was 1 (of 2 available processors)

Optimal solution found (tolerance 1.00e-04)
Best objective 0.000000000000e+00, best bound 0.000000000000e+00, gap 0.0%
Read LP format model from file /home/polaris/yzhang1/Implementation/flute-3.1/flute-3.1/tmp/problem.lp
Reading time = 0.00 seconds
(null): 55 rows, 25 columns, 162 nonzeros
Optimize a model with 55 rows, 25 columns and 162 nonzeros
Presolve removed 55 rows and 25 columns
Presolve time: 0.00s

Explored 0 nodes (0 simplex iterations) in 0.00 seconds
Thread count was 1 (of 2 available processors)

Optimal solution found (tolerance 1.00e-04)
Best objective 1.000000000000e+01, best bound 1.000000000000e+01, gap 0.0%
Read LP format model from file /home/polaris/yzhang1/Implementation/flute-3.1/flute-3.1/tmp/problem.lp
Reading time = 0.00 seconds
(null): 55 rows, 26 columns, 163 nonzeros
Optimize a model with 55 rows, 26 columns and 163 nonzeros
Presolve removed 55 rows and 26 columns
Presolve time: 0.00s

Explored 0 nodes (0 simplex iterations) in 0.00 seconds
Thread count was 1 (of 2 available processors)

Optimal solution found (tolerance 1.00e-04)
Best objective 1.000000000000e+01, best bound 1.000000000000e+01, gap 0.0%
Read LP format model from file /home/polaris/yzhang1/Implementation/flute-3.1/flute-3.1/tmp/problem.lp
Reading time = 0.00 seconds
(null): 54 rows, 26 columns, 161 nonzeros
Optimize a model with 54 rows, 26 columns and 161 nonzeros
Presolve removed 54 rows and 26 columns
Presolve time: 0.00s

Explored 0 nodes (0 simplex iterations) in 0.00 seconds
Thread count was 1 (of 2 available processors)

Optimal solution found (tolerance 1.00e-04)
Best objective 0.000000000000e+00, best bound 0.000000000000e+00, gap 0.0%
Read LP format model from file /home/polaris/yzhang1/Implementation/flute-3.1/flute-3.1/tmp/problem.lp
Reading time = 0.00 seconds
(null): 55 rows, 26 columns, 163 nonzeros
Optimize a model with 55 rows, 26 columns and 163 nonzeros
Presolve removed 55 rows and 26 columns
Presolve time: 0.00s

Explored 0 nodes (0 simplex iterations) in 0.00 seconds
Thread count was 1 (of 2 available processors)

Optimal solution found (tolerance 1.00e-04)
Best objective 1.000000000000e+01, best bound 1.000000000000e+01, gap 0.0%
Read LP format model from file /home/polaris/yzhang1/Implementation/flute-3.1/flute-3.1/tmp/problem.lp
Reading time = 0.25 seconds
(null): 55 rows, 25 columns, 162 nonzeros
Optimize a model with 55 rows, 25 columns and 162 nonzeros
Presolve removed 55 rows and 25 columns
Presolve time: 0.00s

Explored 0 nodes (0 simplex iterations) in 0.00 seconds
Thread count was 1 (of 2 available processors)

Optimal solution found (tolerance 1.00e-04)
Best objective 1.000000000000e+01, best bound 1.000000000000e+01, gap 0.0%
Read LP format model from file /home/polaris/yzhang1/Implementation/flute-3.1/flute-3.1/tmp/problem.lp
Reading time = 0.00 seconds
(null): 55 rows, 25 columns, 162 nonzeros
Optimize a model with 55 rows, 25 columns and 162 nonzeros
Presolve removed 55 rows and 25 columns
Presolve time: 0.00s

Explored 0 nodes (0 simplex iterations) in 0.00 seconds
Thread count was 1 (of 2 available processors)

Optimal solution found (tolerance 1.00e-04)
Best objective 1.000000000000e+01, best bound 1.000000000000e+01, gap 0.0%
Read LP format model from file /home/polaris/yzhang1/Implementation/flute-3.1/flute-3.1/tmp/problem.lp
Reading time = 0.00 seconds
(null): 0 rows, 0 columns, 0 nonzeros
Optimize a model with 0 rows, 0 columns and 0 nonzeros
Presolve time: 0.00s
Presolve: All rows and columns removed
Iteration    Objective       Primal Inf.    Dual Inf.      Time
       0    0.0000000e+00   0.000000e+00   0.000000e+00      0s

Solved in 0 iterations and 0.32 seconds
Optimal objective  0.000000000e+00
Read LP format model from file /home/polaris/yzhang1/Implementation/flute-3.1/flute-3.1/tmp/problem.lp
Reading time = 0.00 seconds
(null): 0 rows, 0 columns, 0 nonzeros
Optimize a model with 0 rows, 0 columns and 0 nonzeros
Presolve time: 0.00s
Presolve: All rows and columns removed
Iteration    Objective       Primal Inf.    Dual Inf.      Time
       0    0.0000000e+00   0.000000e+00   0.000000e+00      0s

Solved in 0 iterations and 0.00 seconds
Optimal objective  0.000000000e+00
Read LP format model from file /home/polaris/yzhang1/Implementation/flute-3.1/flute-3.1/tmp/problem.lp
Reading time = 0.00 seconds
(null): 55 rows, 25 columns, 162 nonzeros
Optimize a model with 55 rows, 25 columns and 162 nonzeros
Presolve removed 55 rows and 25 columns
Presolve time: 0.00s

Explored 0 nodes (0 simplex iterations) in 0.00 seconds
Thread count was 1 (of 2 available processors)

Optimal solution found (tolerance 1.00e-04)
Best objective 1.000000000000e+01, best bound 1.000000000000e+01, gap 0.0%
Read LP format model from file /home/polaris/yzhang1/Implementation/flute-3.1/flute-3.1/tmp/problem.lp
Reading time = 0.00 seconds
(null): 54 rows, 25 columns, 141 nonzeros
Optimize a model with 54 rows, 25 columns and 141 nonzeros
Presolve removed 14 rows and 7 columns
Presolve time: 0.16s
Presolved: 40 rows, 18 columns, 101 nonzeros
Variable types: 0 continuous, 18 integer (18 binary)
Found heuristic solution: objective 0.0000000

Root relaxation: cutoff, 0 iterations, 0.00 seconds

Explored 0 nodes (0 simplex iterations) in 0.62 seconds
Thread count was 2 (of 2 available processors)

Optimal solution found (tolerance 1.00e-04)
Best objective 0.000000000000e+00, best bound -9.999998998900e+00, gap -
Read LP format model from file /home/polaris/yzhang1/Implementation/flute-3.1/flute-3.1/tmp/problem.lp
Reading time = 0.00 seconds
(null): 55 rows, 24 columns, 142 nonzeros
Optimize a model with 55 rows, 24 columns and 142 nonzeros
Presolve removed 15 rows and 6 columns
Presolve time: 0.00s
Presolved: 40 rows, 18 columns, 101 nonzeros
Variable types: 0 continuous, 18 integer (18 binary)
Found heuristic solution: objective 10.0000000

Root relaxation: infeasible, 0 iterations, 0.00 seconds

Explored 0 nodes (0 simplex iterations) in 0.00 seconds
Thread count was 2 (of 2 available processors)

Optimal solution found (tolerance 1.00e-04)
Best objective 1.000000000000e+01, best bound 1.000000000000e+01, gap 0.0%
Read LP format model from file /home/polaris/yzhang1/Implementation/flute-3.1/flute-3.1/tmp/problem.lp
Reading time = 0.00 seconds
(null): 55 rows, 25 columns, 143 nonzeros
Optimize a model with 55 rows, 25 columns and 143 nonzeros
Presolve removed 15 rows and 7 columns
Presolve time: 0.00s
Presolved: 40 rows, 18 columns, 101 nonzeros
Variable types: 0 continuous, 18 integer (18 binary)
Found heuristic solution: objective 10.0000000

Root relaxation: infeasible, 0 iterations, 0.00 seconds

Explored 0 nodes (0 simplex iterations) in 0.00 seconds
Thread count was 2 (of 2 available processors)

Optimal solution found (tolerance 1.00e-04)
Best objective 1.000000000000e+01, best bound 1.000000000000e+01, gap 0.0%
Read LP format model from file /home/polaris/yzhang1/Implementation/flute-3.1/flute-3.1/tmp/problem.lp
Reading time = 0.00 seconds
(null): 54 rows, 26 columns, 142 nonzeros
Optimize a model with 54 rows, 26 columns and 142 nonzeros
Presolve removed 14 rows and 8 columns
Presolve time: 0.00s
Presolved: 40 rows, 18 columns, 101 nonzeros
Variable types: 0 continuous, 18 integer (18 binary)
Found heuristic solution: objective 0.0000000

Root relaxation: cutoff, 0 iterations, 0.00 seconds

Explored 0 nodes (0 simplex iterations) in 0.00 seconds
Thread count was 2 (of 2 available processors)

Optimal solution found (tolerance 1.00e-04)
Best objective 0.000000000000e+00, best bound -9.999998998900e+00, gap -
Error reading LP format file /home/polaris/yzhang1/Implementation/flute-3.1/flute-3.1/tmp/problem.lp at line 3
Malformed term in expression
Neighboring tokens: " + 15101654.010157 A_0_00.000000 A_0_1-9655591.686501 "

Read LP format model from file /home/polaris/yzhang1/Implementation/flute-3.1/flute-3.1/tmp/problem.lp
Reading time = 0.00 seconds
(null): 55 rows, 24 columns, 142 nonzeros
Optimize a model with 55 rows, 24 columns and 142 nonzeros
Presolve removed 15 rows and 6 columns
Presolve time: 0.16s
Presolved: 40 rows, 18 columns, 101 nonzeros
Variable types: 0 continuous, 18 integer (18 binary)
Found heuristic solution: objective 10.0000000

Root relaxation: infeasible, 0 iterations, 0.00 seconds

Explored 0 nodes (0 simplex iterations) in 0.62 seconds
Thread count was 2 (of 2 available processors)

Optimal solution found (tolerance 1.00e-04)
Best objective 1.000000000000e+01, best bound 1.000000000000e+01, gap 0.0%
Read LP format model from file /home/polaris/yzhang1/Implementation/flute-3.1/flute-3.1/tmp/problem.lp
Reading time = 0.03 seconds
(null): 2 rows, 2 columns, 4 nonzeros
Optimize a model with 2 rows, 2 columns and 4 nonzeros
Presolve time: 0.10s

Explored 0 nodes (0 simplex iterations) in 0.10 seconds
Thread count was 1 (of 2 available processors)

Model is infeasible
Best objective -, best bound -, gap -

Gurobi 4.6.0 (linux64) logging started Thu Mar 29 19:57:03 2012


ERROR: HostID mismatch (licensed to a0ebe2e9, hostid is 4818f8d4)


Gurobi 4.6.0 (linux64) logging started Thu Mar 29 20:06:43 2012


ERROR: HostID mismatch (licensed to a0ebe2e9, hostid is 481b0631)

